open_stacks/problem_10_10_1.dzn
c = 10;
p = 10;
orders = [|
0, 0, 0, 0, 1, 0, 0, 1, 0, 0 |
0, 0, 1, 0, 0, 1, 0, 0, 0, 1 |
1, 0, 0, 1, 0, 0, 0, 0, 0, 1 |
1, 0, 1, 0, 1, 0, 1, 1, 0, 0 |
0, 0, 0, 0, 0, 0, 0, 1, 1, 0 |
0, 0, 0, 0, 1, 0, 1, 0, 1, 0 |
0, 0, 0, 0, 0, 0, 1, 0, 0, 0 |
0, 1, 0, 0, 0, 0, 0, 1, 0, 0 |
0, 0, 0, 1, 0, 0, 1, 0, 0, 0 |
0, 1, 0, 0, 0, 0, 0, 0, 1, 0 |];
