open_stacks/problem_10_10_1.sol
objective = 5;
s = [1, 3, 4, 6, 10, 5, 7, 8, 2, 9];
